************************************************************************
file with basedata            : mm29_.bas
initial value random generator: 339155955
************************************************************************
projects                      :  1
jobs (incl. supersource/sink ):  12
horizon                       :  83
RESOURCES
  - renewable                 :  2   R
  - nonrenewable              :  2   N
  - doubly constrained        :  0   D
************************************************************************
PROJECT INFORMATION:
pronr.  #jobs rel.date duedate tardcost  MPM-Time
    1     10      0       16        6       16
************************************************************************
PRECEDENCE RELATIONS:
jobnr.    #modes  #successors   successors
   0        1          3           1   2   3
   1        3          3           4   5   8
   2        3          3           6   8  10
   3        3          2           7   8
   4        3          1           9
   5        3          1           6
   6        3          1           7
   7        3          1           9
   8        3          1          11
   9        3          1          11
  10        3          1          11
  11        1          0        
************************************************************************
REQUESTS/DURATIONS:
jobnr. mode duration  R 1  R 2  R 3  R 4  E(W 1)  E(W 2)
------------------------------------------------------------------------
  0      1     0       0    0    0    0     0       0
  1      1     3       7    0    8    9    21      51
  2      1     2       7    0   10    8    14      36
  3      1     4      10    0   10    6    40      64
  4      1     2       6    0    9    7    12      32
  5      1     8       4    0    7    7    32      112
  6      1     2       4    0   10    5     8      30
  7      1     1       9    0    5    8     9      13
  8      1     5       4    0    4   10    20      70
  9      1     2       0    5   10    5    10      30
 10      1     1       0    3    5    7     3      12
 11      1     0       0    0    0    0     0       0
************************************************************************
RESOURCEAVAILABILITIES:
  R 1  R 2
   42   103
************************************************************************
RESOURCE LIMITS:
jobnr.  l(R 1)  u(R 1)  l(R 2)  u(R 2)
------------------------------------------------------------------------
  0        0       0       0       0
  1        4       7       9      17
  2        4       7       9      18
  3        5      10       8      16
  4        3       6       9      16
  5        2       4       8      14
  6        2       4       8      15
  7        5       9       7      13
  8        2       4       7      14
  9        3       5       8      15
 10        2       3       7      12
 11        0       0       0       0
************************************************************************
SCENARIOS:
------------------------------------------------------------------------
RESOURCE k = 1
s = 1: (0, 30, 21, 41, 13, 51, 8, 7, 12, 11, 5, 0)
s = 2: (0, 15, 16, 40, 10, 20, 9, 14, 20, 12, 4, 0)
s = 3: (0, 24, 13, 33, 20, 50, 8, 16, 22, 11, 2, 0)
s = 4: (0, 26, 17, 40, 10, 32, 8, 8, 26, 13, 4, 0)
s = 5: (0, 19, 10, 58, 15, 33, 9, 9, 17, 7, 5, 0)
s = 6: (0, 17, 18, 44, 14, 21, 8, 12, 15, 11, 6, 0)
s = 7: (0, 24, 11, 44, 7, 37, 6, 11, 17, 8, 4, 0)
s = 8: (0, 25, 9, 63, 13, 24, 7, 6, 17, 13, 4, 0)
s = 9: (0, 19, 11, 51, 14, 42, 5, 6, 15, 10, 3, 0)
s = 10: (0, 39, 15, 56, 9, 21, 9, 7, 15, 8, 3, 0)
s = 11: (0, 15, 13, 25, 14, 24, 5, 8, 27, 12, 3, 0)
s = 12: (0, 14, 10, 36, 13, 35, 7, 8, 22, 8, 3, 0)
s = 13: (0, 35, 12, 48, 12, 22, 7, 10, 25, 12, 4, 0)
s = 14: (0, 33, 17, 46, 12, 43, 10, 9, 14, 7, 2, 0)
s = 15: (0, 21, 16, 45, 11, 26, 5, 7, 15, 15, 4, 0)
s = 16: (0, 28, 11, 34, 15, 49, 11, 6, 25, 8, 3, 0)
s = 17: (0, 21, 17, 63, 10, 36, 9, 11, 16, 10, 4, 0)
s = 18: (0, 17, 13, 45, 14, 33, 7, 12, 13, 7, 2, 0)
s = 19: (0, 19, 16, 31, 15, 18, 5, 10, 19, 11, 3, 0)
s = 20: (0, 15, 12, 38, 14, 28, 6, 12, 24, 9, 4, 0)
s = 21: (0, 31, 13, 22, 11, 35, 8, 6, 17, 10, 3, 0)
s = 22: (0, 25, 23, 48, 14, 26, 6, 7, 22, 11, 3, 0)
s = 23: (0, 25, 11, 34, 8, 33, 15, 10, 22, 11, 3, 0)
s = 24: (0, 21, 18, 39, 12, 22, 10, 13, 27, 17, 2, 0)
s = 25: (0, 14, 10, 40, 18, 20, 6, 12, 13, 10, 4, 0)
s = 26: (0, 21, 16, 45, 9, 21, 7, 7, 15, 6, 5, 0)
s = 27: (0, 18, 14, 58, 14, 21, 10, 10, 20, 16, 4, 0)
s = 28: (0, 22, 24, 29, 12, 32, 8, 5, 22, 7, 5, 0)
s = 29: (0, 35, 12, 55, 11, 28, 9, 11, 22, 7, 3, 0)
s = 30: (0, 16, 18, 53, 18, 22, 6, 8, 16, 15, 4, 0)
s = 31: (0, 21, 13, 23, 15, 31, 9, 7, 30, 10, 3, 0)
s = 32: (0, 23, 16, 31, 11, 38, 9, 14, 24, 12, 4, 0)
s = 33: (0, 23, 11, 37, 12, 31, 5, 13, 21, 7, 3, 0)
s = 34: (0, 20, 15, 46, 10, 26, 10, 8, 18, 12, 4, 0)
s = 35: (0, 30, 13, 33, 9, 36, 6, 10, 19, 13, 3, 0)
s = 36: (0, 18, 22, 30, 12, 25, 11, 8, 13, 9, 2, 0)
s = 37: (0, 17, 12, 50, 8, 22, 15, 7, 13, 11, 4, 0)
s = 38: (0, 15, 11, 35, 11, 30, 6, 12, 33, 7, 3, 0)
s = 39: (0, 14, 13, 37, 8, 42, 7, 13, 17, 8, 2, 0)
s = 40: (0, 13, 13, 47, 14, 35, 7, 7, 33, 11, 3, 0)
s = 41: (0, 25, 9, 48, 10, 25, 10, 11, 17, 7, 3, 0)
s = 42: (0, 34, 11, 58, 11, 27, 7, 9, 16, 12, 4, 0)
s = 43: (0, 33, 11, 24, 10, 21, 11, 15, 22, 9, 4, 0)
s = 44: (0, 15, 16, 49, 13, 32, 9, 6, 14, 15, 4, 0)
s = 45: (0, 13, 18, 26, 8, 25, 9, 7, 19, 10, 2, 0)
s = 46: (0, 16, 10, 52, 11, 30, 9, 9, 31, 12, 3, 0)
s = 47: (0, 27, 12, 21, 18, 28, 7, 12, 14, 10, 3, 0)
s = 48: (0, 18, 12, 43, 8, 27, 6, 8, 15, 10, 5, 0)
s = 49: (0, 23, 12, 33, 12, 27, 8, 7, 30, 9, 4, 0)
s = 50: (0, 27, 10, 67, 12, 28, 10, 14, 20, 13, 3, 0)
s = 51: (0, 30, 20, 58, 14, 30, 6, 10, 36, 9, 3, 0)
s = 52: (0, 28, 17, 53, 17, 38, 9, 6, 12, 9, 6, 0)
s = 53: (0, 16, 17, 34, 12, 23, 7, 13, 19, 14, 4, 0)
s = 54: (0, 24, 10, 63, 18, 36, 7, 7, 12, 9, 4, 0)
s = 55: (0, 27, 15, 58, 11, 31, 10, 10, 22, 11, 4, 0)
s = 56: (0, 21, 17, 48, 10, 33, 11, 9, 15, 13, 3, 0)
s = 57: (0, 23, 14, 37, 8, 24, 9, 9, 14, 11, 4, 0)
s = 58: (0, 15, 16, 80, 9, 35, 6, 11, 17, 9, 4, 0)
s = 59: (0, 25, 19, 41, 16, 29, 5, 12, 15, 8, 4, 0)
s = 60: (0, 14, 9, 32, 14, 24, 9, 12, 21, 10, 3, 0)
s = 61: (0, 15, 15, 62, 12, 39, 5, 13, 28, 10, 4, 0)
s = 62: (0, 34, 20, 45, 11, 34, 11, 7, 15, 11, 3, 0)
s = 63: (0, 23, 16, 43, 13, 29, 9, 8, 29, 15, 5, 0)
s = 64: (0, 28, 23, 41, 11, 30, 9, 7, 12, 9, 3, 0)
s = 65: (0, 19, 14, 64, 10, 34, 6, 7, 28, 7, 4, 0)
s = 66: (0, 13, 12, 56, 14, 30, 13, 16, 34, 8, 3, 0)
s = 67: (0, 16, 20, 40, 12, 28, 6, 10, 23, 8, 4, 0)
s = 68: (0, 16, 8, 48, 16, 39, 8, 14, 29, 11, 5, 0)
s = 69: (0, 31, 13, 43, 13, 45, 8, 9, 27, 9, 4, 0)
s = 70: (0, 22, 10, 64, 8, 34, 10, 7, 23, 6, 4, 0)
s = 71: (0, 21, 14, 42, 17, 29, 9, 7, 24, 12, 4, 0)
s = 72: (0, 23, 14, 52, 9, 48, 6, 8, 20, 10, 3, 0)
s = 73: (0, 19, 14, 23, 10, 34, 8, 6, 19, 9, 3, 0)
s = 74: (0, 19, 13, 45, 12, 29, 7, 12, 14, 8, 4, 0)
s = 75: (0, 15, 15, 34, 13, 22, 10, 10, 21, 17, 3, 0)
s = 76: (0, 26, 14, 35, 8, 30, 12, 9, 21, 14, 5, 0)
s = 77: (0, 20, 17, 47, 7, 26, 10, 7, 23, 14, 4, 0)
s = 78: (0, 24, 16, 27, 7, 26, 9, 7, 26, 11, 4, 0)
s = 79: (0, 25, 12, 43, 15, 31, 6, 15, 24, 6, 5, 0)
s = 80: (0, 16, 9, 54, 10, 37, 9, 9, 25, 10, 4, 0)
s = 81: (0, 30, 18, 40, 12, 28, 9, 11, 29, 9, 4, 0)
s = 82: (0, 22, 14, 34, 12, 31, 7, 9, 14, 9, 3, 0)
s = 83: (0, 29, 18, 35, 10, 37, 7, 12, 15, 9, 3, 0)
s = 84: (0, 17, 9, 24, 11, 30, 8, 10, 16, 9, 3, 0)
s = 85: (0, 17, 11, 42, 12, 44, 8, 15, 14, 14, 4, 0)
s = 86: (0, 29, 12, 35, 15, 39, 11, 12, 21, 10, 5, 0)
s = 87: (0, 32, 24, 31, 17, 42, 6, 8, 18, 10, 2, 0)
s = 88: (0, 18, 12, 35, 10, 46, 7, 11, 31, 9, 3, 0)
s = 89: (0, 21, 15, 36, 14, 52, 11, 9, 28, 9, 4, 0)
s = 90: (0, 13, 10, 43, 11, 22, 7, 11, 17, 10, 4, 0)
s = 91: (0, 26, 14, 37, 8, 39, 7, 8, 23, 8, 5, 0)
s = 92: (0, 16, 12, 47, 10, 31, 6, 7, 25, 8, 3, 0)
s = 93: (0, 21, 15, 36, 9, 20, 6, 12, 16, 14, 3, 0)
s = 94: (0, 25, 10, 27, 14, 28, 8, 11, 14, 12, 4, 0)
s = 95: (0, 14, 11, 43, 10, 28, 5, 11, 24, 19, 3, 0)
s = 96: (0, 23, 16, 46, 17, 27, 8, 8, 22, 8, 3, 0)
s = 97: (0, 22, 15, 36, 11, 27, 9, 12, 29, 11, 4, 0)
s = 98: (0, 20, 14, 42, 14, 21, 8, 8, 24, 11, 4, 0)
s = 99: (0, 29, 8, 30, 9, 44, 13, 11, 26, 9, 2, 0)
s = 100: (0, 16, 9, 30, 13, 29, 9, 9, 22, 8, 3, 0)
s = 101: (0, 22, 13, 45, 17, 32, 10, 12, 11, 7, 2, 0)
s = 102: (0, 23, 12, 46, 16, 28, 9, 8, 16, 10, 4, 0)
s = 103: (0, 12, 11, 29, 11, 42, 11, 11, 29, 11, 4, 0)
s = 104: (0, 39, 15, 39, 12, 30, 6, 7, 26, 8, 2, 0)
s = 105: (0, 30, 12, 31, 11, 39, 11, 11, 19, 14, 4, 0)
s = 106: (0, 23, 11, 49, 8, 36, 10, 6, 22, 11, 4, 0)
s = 107: (0, 18, 10, 43, 13, 31, 7, 8, 17, 16, 4, 0)
s = 108: (0, 19, 18, 26, 13, 43, 12, 12, 21, 7, 5, 0)
s = 109: (0, 28, 17, 32, 16, 35, 8, 11, 27, 17, 3, 0)
s = 110: (0, 14, 12, 27, 16, 35, 7, 14, 15, 14, 4, 0)
s = 111: (0, 33, 10, 34, 11, 38, 5, 7, 19, 7, 3, 0)
s = 112: (0, 13, 13, 34, 13, 34, 8, 7, 18, 10, 5, 0)
s = 113: (0, 34, 17, 49, 18, 36, 10, 11, 24, 13, 4, 0)
s = 114: (0, 23, 15, 29, 7, 30, 5, 13, 17, 8, 4, 0)
s = 115: (0, 17, 23, 29, 12, 38, 6, 8, 14, 9, 4, 0)
s = 116: (0, 25, 21, 38, 12, 27, 5, 12, 17, 14, 3, 0)
s = 117: (0, 25, 13, 57, 11, 47, 7, 10, 29, 8, 3, 0)
s = 118: (0, 15, 14, 35, 22, 32, 7, 7, 12, 9, 3, 0)
s = 119: (0, 14, 18, 45, 14, 50, 10, 8, 16, 7, 2, 0)
s = 120: (0, 15, 10, 38, 19, 34, 7, 8, 16, 14, 3, 0)
s = 121: (0, 20, 17, 42, 10, 34, 6, 7, 13, 10, 2, 0)
s = 122: (0, 31, 12, 49, 7, 20, 10, 12, 12, 14, 3, 0)
s = 123: (0, 13, 10, 73, 13, 25, 5, 10, 20, 13, 3, 0)
s = 124: (0, 28, 17, 25, 11, 35, 6, 9, 12, 8, 3, 0)
s = 125: (0, 25, 22, 53, 11, 46, 11, 8, 25, 8, 2, 0)
s = 126: (0, 25, 16, 37, 15, 53, 8, 10, 18, 11, 6, 0)
s = 127: (0, 28, 12, 36, 11, 32, 7, 9, 26, 9, 3, 0)
s = 128: (0, 22, 13, 21, 14, 25, 6, 9, 18, 10, 2, 0)
s = 129: (0, 14, 18, 24, 11, 33, 8, 10, 22, 8, 2, 0)
s = 130: (0, 13, 11, 29, 11, 22, 10, 9, 18, 14, 3, 0)
s = 131: (0, 20, 15, 53, 8, 48, 6, 8, 19, 11, 5, 0)
s = 132: (0, 30, 12, 53, 8, 29, 10, 14, 11, 7, 5, 0)
s = 133: (0, 18, 14, 28, 7, 53, 6, 11, 13, 13, 3, 0)
s = 134: (0, 17, 22, 50, 12, 31, 11, 8, 18, 6, 3, 0)
s = 135: (0, 17, 14, 39, 10, 21, 7, 11, 20, 10, 6, 0)
s = 136: (0, 20, 15, 45, 11, 42, 14, 11, 15, 10, 2, 0)
s = 137: (0, 24, 24, 63, 13, 23, 10, 10, 21, 11, 4, 0)
s = 138: (0, 18, 11, 45, 15, 22, 9, 11, 14, 6, 4, 0)
s = 139: (0, 25, 12, 60, 11, 37, 6, 11, 33, 9, 3, 0)
s = 140: (0, 21, 12, 43, 8, 30, 9, 7, 21, 9, 3, 0)
s = 141: (0, 18, 9, 59, 12, 28, 13, 10, 17, 9, 3, 0)
s = 142: (0, 26, 15, 39, 18, 47, 14, 7, 21, 10, 4, 0)
s = 143: (0, 20, 15, 39, 9, 34, 9, 8, 18, 14, 2, 0)
s = 144: (0, 16, 13, 43, 16, 29, 9, 10, 26, 10, 6, 0)
s = 145: (0, 22, 19, 49, 12, 26, 9, 8, 16, 9, 3, 0)
s = 146: (0, 31, 11, 41, 10, 20, 7, 13, 28, 15, 3, 0)
s = 147: (0, 17, 18, 40, 12, 33, 7, 8, 17, 9, 3, 0)
s = 148: (0, 28, 18, 44, 11, 33, 7, 11, 24, 17, 3, 0)
s = 149: (0, 18, 21, 25, 8, 43, 10, 6, 18, 14, 3, 0)
s = 150: (0, 14, 22, 49, 14, 37, 8, 14, 19, 9, 5, 0)
s = 151: (0, 32, 9, 36, 17, 39, 6, 11, 11, 16, 4, 0)
s = 152: (0, 34, 13, 52, 11, 45, 9, 11, 22, 16, 2, 0)
s = 153: (0, 19, 16, 27, 24, 31, 7, 14, 13, 11, 4, 0)
s = 154: (0, 20, 18, 35, 15, 29, 8, 9, 13, 7, 4, 0)
s = 155: (0, 24, 15, 42, 19, 40, 9, 9, 23, 15, 3, 0)
s = 156: (0, 22, 23, 46, 12, 40, 8, 6, 16, 9, 3, 0)
s = 157: (0, 25, 14, 41, 15, 30, 9, 10, 19, 8, 3, 0)
s = 158: (0, 19, 14, 30, 13, 27, 7, 6, 17, 8, 4, 0)
s = 159: (0, 17, 13, 39, 10, 50, 12, 8, 19, 15, 3, 0)
s = 160: (0, 17, 19, 60, 7, 31, 10, 6, 19, 7, 3, 0)
s = 161: (0, 25, 12, 41, 12, 36, 9, 15, 13, 10, 4, 0)
s = 162: (0, 16, 20, 41, 18, 41, 8, 10, 15, 8, 3, 0)
s = 163: (0, 18, 12, 45, 9, 46, 6, 9, 16, 7, 4, 0)
s = 164: (0, 19, 22, 32, 8, 40, 8, 14, 16, 7, 3, 0)
s = 165: (0, 22, 17, 34, 11, 54, 8, 8, 32, 6, 3, 0)
s = 166: (0, 14, 10, 61, 23, 38, 6, 7, 23, 11, 4, 0)
s = 167: (0, 21, 9, 34, 17, 30, 7, 7, 25, 9, 2, 0)
s = 168: (0, 13, 19, 42, 9, 29, 12, 12, 17, 9, 2, 0)
s = 169: (0, 26, 14, 43, 18, 38, 8, 9, 20, 6, 4, 0)
s = 170: (0, 24, 13, 39, 14, 26, 10, 9, 20, 13, 5, 0)
s = 171: (0, 22, 19, 28, 10, 28, 6, 7, 32, 11, 3, 0)
s = 172: (0, 16, 13, 60, 17, 27, 6, 7, 34, 13, 4, 0)
s = 173: (0, 24, 15, 58, 8, 39, 8, 6, 12, 9, 3, 0)
s = 174: (0, 28, 17, 44, 13, 20, 8, 9, 23, 14, 4, 0)
s = 175: (0, 28, 18, 27, 9, 20, 9, 7, 17, 13, 3, 0)
s = 176: (0, 25, 11, 29, 8, 22, 10, 7, 28, 9, 3, 0)
s = 177: (0, 21, 14, 57, 10, 35, 8, 10, 20, 8, 3, 0)
s = 178: (0, 15, 11, 34, 13, 31, 9, 13, 25, 8, 4, 0)
s = 179: (0, 27, 14, 40, 17, 24, 10, 6, 21, 12, 3, 0)
s = 180: (0, 14, 12, 24, 13, 20, 10, 6, 18, 7, 3, 0)
s = 181: (0, 19, 11, 32, 11, 53, 11, 10, 15, 10, 6, 0)
s = 182: (0, 19, 13, 54, 14, 23, 6, 7, 23, 12, 3, 0)
s = 183: (0, 18, 13, 36, 8, 41, 14, 12, 17, 15, 4, 0)
s = 184: (0, 19, 11, 55, 9, 29, 6, 8, 17, 8, 3, 0)
s = 185: (0, 27, 18, 33, 8, 35, 11, 9, 16, 8, 3, 0)
s = 186: (0, 29, 13, 35, 12, 33, 10, 6, 16, 12, 3, 0)
s = 187: (0, 19, 10, 30, 14, 29, 8, 12, 19, 8, 4, 0)
s = 188: (0, 26, 14, 44, 11, 37, 12, 10, 17, 9, 3, 0)
s = 189: (0, 18, 21, 35, 12, 18, 7, 10, 20, 14, 2, 0)
s = 190: (0, 27, 18, 56, 7, 28, 10, 6, 27, 12, 4, 0)
s = 191: (0, 14, 19, 44, 9, 25, 9, 9, 21, 13, 4, 0)
s = 192: (0, 19, 14, 54, 17, 52, 6, 10, 21, 6, 3, 0)
s = 193: (0, 19, 15, 39, 11, 26, 7, 10, 27, 17, 4, 0)
s = 194: (0, 13, 15, 48, 10, 46, 8, 8, 15, 12, 3, 0)
s = 195: (0, 23, 12, 30, 7, 27, 10, 9, 12, 6, 4, 0)
s = 196: (0, 28, 15, 54, 17, 50, 8, 8, 25, 11, 4, 0)
s = 197: (0, 18, 18, 26, 14, 36, 8, 8, 21, 10, 2, 0)
s = 198: (0, 24, 11, 41, 14, 43, 6, 12, 15, 10, 4, 0)
s = 199: (0, 19, 12, 43, 11, 32, 5, 8, 22, 7, 3, 0)
s = 200: (0, 19, 13, 32, 11, 21, 14, 14, 17, 20, 5, 0)
------------------------------------------------------------------------
RESOURCE k = 2
s = 1: (0, 73, 52, 65, 35, 176, 29, 10, 42, 32, 18, 0)
s = 2: (0, 35, 40, 64, 26, 68, 32, 20, 70, 35, 13, 0)
s = 3: (0, 57, 34, 52, 51, 175, 30, 23, 76, 32, 7, 0)
s = 4: (0, 63, 44, 63, 26, 110, 27, 11, 90, 38, 14, 0)
s = 5: (0, 46, 24, 92, 40, 113, 31, 12, 57, 19, 19, 0)
s = 6: (0, 40, 46, 71, 35, 73, 28, 17, 50, 31, 21, 0)
s = 7: (0, 56, 27, 70, 17, 129, 23, 16, 58, 23, 16, 0)
s = 8: (0, 60, 22, 101, 35, 82, 27, 9, 59, 37, 15, 0)
s = 9: (0, 47, 28, 81, 37, 147, 18, 8, 52, 29, 11, 0)
s = 10: (0, 93, 38, 89, 23, 73, 32, 10, 50, 22, 12, 0)
s = 11: (0, 36, 33, 40, 37, 84, 16, 12, 93, 35, 9, 0)
s = 12: (0, 34, 26, 57, 35, 122, 25, 12, 75, 23, 12, 0)
s = 13: (0, 84, 29, 76, 31, 75, 23, 14, 85, 35, 15, 0)
s = 14: (0, 79, 44, 74, 31, 151, 35, 13, 49, 20, 8, 0)
s = 15: (0, 51, 39, 71, 28, 90, 19, 10, 52, 44, 15, 0)
s = 16: (0, 67, 27, 55, 40, 171, 39, 9, 86, 23, 12, 0)
s = 17: (0, 50, 43, 101, 25, 126, 33, 16, 56, 29, 13, 0)
s = 18: (0, 41, 33, 71, 37, 114, 26, 17, 43, 21, 8, 0)
s = 19: (0, 46, 41, 49, 40, 63, 19, 14, 66, 33, 9, 0)
s = 20: (0, 35, 31, 61, 37, 98, 21, 17, 84, 27, 16, 0)
s = 21: (0, 76, 33, 36, 29, 121, 30, 9, 59, 30, 10, 0)
s = 22: (0, 60, 59, 76, 37, 90, 20, 9, 74, 32, 11, 0)
s = 23: (0, 60, 28, 54, 21, 116, 55, 14, 75, 31, 12, 0)
s = 24: (0, 50, 45, 63, 31, 77, 36, 18, 93, 49, 8, 0)
s = 25: (0, 33, 24, 63, 48, 70, 21, 18, 43, 29, 13, 0)
s = 26: (0, 50, 41, 71, 22, 74, 26, 10, 50, 17, 19, 0)
s = 27: (0, 43, 35, 92, 35, 71, 34, 14, 69, 47, 13, 0)
s = 28: (0, 52, 61, 46, 30, 109, 29, 7, 77, 19, 18, 0)
s = 29: (0, 84, 31, 87, 29, 96, 32, 15, 74, 19, 9, 0)
s = 30: (0, 39, 46, 84, 48, 75, 21, 11, 55, 43, 13, 0)
s = 31: (0, 50, 32, 36, 39, 107, 34, 9, 103, 30, 11, 0)
s = 32: (0, 56, 41, 50, 28, 132, 34, 20, 83, 36, 14, 0)
s = 33: (0, 54, 27, 59, 30, 107, 17, 19, 73, 19, 11, 0)
s = 34: (0, 47, 38, 73, 27, 91, 37, 11, 63, 34, 13, 0)
s = 35: (0, 72, 33, 53, 23, 126, 21, 14, 67, 37, 11, 0)
s = 36: (0, 43, 56, 48, 32, 85, 41, 11, 46, 26, 8, 0)
s = 37: (0, 41, 31, 80, 20, 75, 53, 9, 43, 32, 13, 0)
s = 38: (0, 35, 27, 55, 28, 104, 22, 17, 114, 21, 9, 0)
s = 39: (0, 34, 34, 59, 21, 145, 24, 19, 58, 23, 8, 0)
s = 40: (0, 30, 34, 75, 37, 121, 23, 10, 115, 32, 10, 0)
s = 41: (0, 59, 23, 77, 25, 87, 36, 16, 59, 19, 12, 0)
s = 42: (0, 81, 29, 93, 28, 93, 24, 13, 56, 35, 14, 0)
s = 43: (0, 81, 28, 38, 26, 73, 42, 21, 75, 26, 15, 0)
s = 44: (0, 36, 41, 78, 33, 110, 33, 9, 48, 45, 16, 0)
s = 45: (0, 30, 46, 42, 20, 88, 34, 10, 65, 29, 8, 0)
s = 46: (0, 39, 26, 83, 29, 102, 31, 12, 109, 35, 11, 0)
s = 47: (0, 65, 30, 34, 48, 96, 26, 17, 49, 28, 12, 0)
s = 48: (0, 42, 31, 68, 21, 93, 23, 11, 52, 28, 19, 0)
s = 49: (0, 55, 30, 53, 31, 93, 29, 10, 105, 26, 15, 0)
s = 50: (0, 65, 24, 106, 31, 98, 35, 20, 69, 37, 10, 0)
s = 51: (0, 72, 50, 93, 36, 104, 22, 14, 125, 27, 12, 0)
s = 52: (0, 66, 42, 84, 44, 131, 32, 9, 39, 27, 22, 0)
s = 53: (0, 39, 44, 54, 31, 78, 25, 19, 66, 40, 13, 0)
s = 54: (0, 57, 26, 101, 47, 123, 26, 9, 40, 26, 14, 0)
s = 55: (0, 66, 37, 93, 29, 107, 37, 15, 77, 33, 15, 0)
s = 56: (0, 51, 44, 76, 26, 113, 40, 13, 52, 38, 12, 0)
s = 57: (0, 56, 34, 59, 21, 81, 33, 12, 47, 31, 13, 0)
s = 58: (0, 36, 39, 128, 23, 121, 21, 16, 59, 25, 16, 0)
s = 59: (0, 59, 49, 66, 43, 99, 17, 17, 50, 23, 13, 0)
s = 60: (0, 34, 23, 51, 35, 84, 34, 17, 71, 28, 10, 0)
s = 61: (0, 35, 37, 99, 30, 136, 18, 18, 95, 30, 13, 0)
s = 62: (0, 83, 50, 71, 29, 118, 41, 9, 52, 31, 9, 0)
s = 63: (0, 56, 39, 68, 33, 100, 34, 12, 102, 45, 19, 0)
s = 64: (0, 67, 57, 65, 28, 104, 33, 9, 41, 27, 11, 0)
s = 65: (0, 45, 34, 102, 27, 117, 20, 10, 96, 20, 15, 0)
s = 66: (0, 31, 30, 89, 37, 105, 47, 23, 118, 24, 9, 0)
s = 67: (0, 38, 50, 63, 30, 98, 19, 14, 78, 23, 13, 0)
s = 68: (0, 38, 20, 76, 42, 135, 30, 20, 99, 33, 18, 0)
s = 69: (0, 74, 33, 68, 34, 157, 28, 13, 93, 27, 14, 0)
s = 70: (0, 52, 26, 103, 20, 117, 38, 10, 78, 17, 13, 0)
s = 71: (0, 51, 36, 67, 44, 99, 33, 10, 82, 36, 16, 0)
s = 72: (0, 54, 35, 83, 22, 166, 21, 11, 67, 30, 9, 0)
s = 73: (0, 45, 34, 36, 26, 119, 28, 9, 64, 27, 12, 0)
s = 74: (0, 45, 33, 72, 32, 102, 24, 18, 46, 23, 14, 0)
s = 75: (0, 36, 38, 54, 35, 75, 35, 14, 71, 49, 9, 0)
s = 76: (0, 62, 36, 56, 20, 104, 44, 12, 71, 42, 20, 0)
s = 77: (0, 49, 43, 75, 18, 91, 36, 11, 79, 42, 14, 0)
s = 78: (0, 57, 40, 43, 19, 89, 33, 11, 91, 33, 14, 0)
s = 79: (0, 60, 31, 69, 39, 107, 21, 21, 81, 17, 18, 0)
s = 80: (0, 38, 23, 85, 27, 128, 31, 12, 85, 29, 16, 0)
s = 81: (0, 71, 46, 64, 30, 96, 33, 15, 99, 26, 16, 0)
s = 82: (0, 53, 36, 53, 32, 108, 25, 13, 47, 26, 11, 0)
s = 83: (0, 70, 46, 55, 27, 128, 27, 17, 52, 25, 11, 0)
s = 84: (0, 41, 22, 38, 30, 103, 27, 14, 54, 26, 10, 0)
s = 85: (0, 40, 29, 66, 30, 153, 28, 22, 49, 42, 13, 0)
s = 86: (0, 69, 31, 55, 38, 135, 40, 17, 71, 28, 18, 0)
s = 87: (0, 77, 62, 50, 45, 147, 20, 11, 61, 30, 8, 0)
s = 88: (0, 42, 31, 55, 26, 158, 27, 15, 107, 26, 12, 0)
s = 89: (0, 50, 37, 57, 36, 180, 38, 13, 95, 26, 14, 0)
s = 90: (0, 30, 25, 69, 27, 77, 23, 15, 59, 29, 15, 0)
s = 91: (0, 62, 36, 59, 20, 134, 25, 11, 79, 22, 19, 0)
s = 92: (0, 37, 29, 76, 27, 108, 22, 10, 86, 22, 10, 0)
s = 93: (0, 51, 37, 58, 24, 70, 21, 18, 54, 42, 11, 0)
s = 94: (0, 59, 25, 43, 35, 98, 30, 16, 49, 35, 16, 0)
s = 95: (0, 33, 27, 69, 27, 96, 17, 16, 83, 55, 9, 0)
s = 96: (0, 55, 39, 73, 45, 92, 29, 11, 76, 22, 12, 0)
s = 97: (0, 53, 37, 57, 28, 93, 34, 17, 100, 32, 14, 0)
s = 98: (0, 48, 36, 66, 37, 74, 27, 12, 81, 31, 15, 0)
s = 99: (0, 69, 20, 48, 22, 154, 47, 15, 91, 25, 8, 0)
s = 100: (0, 39, 22, 47, 33, 99, 31, 12, 77, 22, 11, 0)
s = 101: (0, 52, 32, 72, 44, 111, 38, 17, 38, 20, 8, 0)
s = 102: (0, 56, 29, 73, 41, 95, 31, 12, 55, 29, 15, 0)
s = 103: (0, 28, 26, 45, 28, 146, 39, 15, 100, 31, 14, 0)
s = 104: (0, 93, 38, 62, 30, 105, 20, 9, 90, 23, 8, 0)
s = 105: (0, 71, 31, 49, 29, 135, 42, 15, 66, 40, 14, 0)
s = 106: (0, 56, 28, 78, 19, 124, 35, 8, 77, 32, 14, 0)
s = 107: (0, 43, 24, 68, 35, 107, 27, 12, 59, 46, 15, 0)
s = 108: (0, 46, 45, 42, 35, 151, 45, 16, 72, 20, 18, 0)
s = 109: (0, 66, 42, 50, 43, 122, 30, 15, 95, 49, 11, 0)
s = 110: (0, 33, 31, 43, 43, 120, 24, 19, 52, 40, 13, 0)
s = 111: (0, 80, 25, 54, 28, 132, 19, 10, 65, 20, 10, 0)
s = 112: (0, 31, 32, 54, 33, 119, 28, 10, 60, 29, 17, 0)
s = 113: (0, 81, 44, 79, 46, 124, 35, 16, 84, 37, 16, 0)
s = 114: (0, 55, 39, 45, 17, 103, 18, 19, 58, 23, 15, 0)
s = 115: (0, 39, 58, 46, 30, 130, 21, 11, 47, 25, 13, 0)
s = 116: (0, 60, 53, 61, 32, 94, 19, 17, 57, 41, 11, 0)
s = 117: (0, 59, 33, 91, 28, 162, 26, 14, 101, 23, 11, 0)
s = 118: (0, 35, 35, 55, 58, 112, 24, 10, 41, 25, 10, 0)
s = 119: (0, 34, 46, 72, 37, 175, 36, 12, 55, 21, 7, 0)
s = 120: (0, 35, 25, 61, 50, 119, 26, 11, 55, 41, 10, 0)
s = 121: (0, 47, 43, 67, 25, 119, 22, 10, 45, 29, 7, 0)
s = 122: (0, 74, 29, 79, 19, 69, 38, 17, 42, 40, 10, 0)
s = 123: (0, 30, 24, 116, 34, 85, 19, 14, 70, 39, 11, 0)
s = 124: (0, 67, 42, 40, 29, 122, 23, 12, 41, 24, 11, 0)
s = 125: (0, 59, 55, 84, 29, 159, 40, 12, 85, 23, 8, 0)
s = 126: (0, 60, 39, 58, 39, 183, 28, 15, 63, 31, 22, 0)
s = 127: (0, 66, 30, 58, 29, 109, 25, 13, 91, 25, 9, 0)
s = 128: (0, 54, 33, 33, 38, 87, 20, 13, 63, 29, 8, 0)
s = 129: (0, 34, 46, 39, 29, 113, 27, 14, 76, 23, 8, 0)
s = 130: (0, 32, 28, 46, 29, 76, 36, 12, 62, 41, 11, 0)
s = 131: (0, 49, 39, 84, 21, 166, 21, 12, 66, 32, 17, 0)
s = 132: (0, 72, 31, 84, 21, 99, 36, 20, 37, 21, 19, 0)
s = 133: (0, 43, 35, 44, 18, 186, 21, 16, 43, 37, 12, 0)
s = 134: (0, 40, 56, 79, 32, 108, 39, 12, 62, 18, 10, 0)
s = 135: (0, 41, 36, 62, 25, 72, 24, 16, 70, 30, 23, 0)
s = 136: (0, 47, 37, 72, 29, 146, 50, 16, 53, 30, 8, 0)
s = 137: (0, 58, 60, 101, 33, 80, 37, 15, 71, 31, 13, 0)
s = 138: (0, 42, 26, 72, 40, 77, 33, 15, 48, 18, 16, 0)
s = 139: (0, 60, 30, 96, 29, 129, 21, 16, 114, 25, 12, 0)
s = 140: (0, 49, 30, 68, 21, 103, 31, 10, 73, 26, 11, 0)
s = 141: (0, 44, 23, 94, 31, 97, 48, 14, 58, 27, 10, 0)
s = 142: (0, 62, 38, 62, 46, 162, 52, 10, 74, 30, 15, 0)
s = 143: (0, 48, 39, 62, 23, 117, 32, 12, 61, 42, 7, 0)
s = 144: (0, 38, 31, 68, 41, 99, 32, 14, 91, 28, 22, 0)
s = 145: (0, 53, 47, 78, 32, 89, 32, 12, 54, 26, 11, 0)
s = 146: (0, 74, 28, 65, 27, 67, 25, 18, 95, 43, 10, 0)
s = 147: (0, 40, 46, 64, 31, 114, 25, 11, 59, 27, 11, 0)
s = 148: (0, 68, 46, 70, 27, 116, 25, 15, 82, 51, 11, 0)
s = 149: (0, 44, 54, 39, 19, 149, 36, 8, 63, 40, 10, 0)
s = 150: (0, 32, 55, 78, 37, 127, 29, 20, 65, 26, 19, 0)
s = 151: (0, 77, 24, 57, 44, 135, 23, 15, 39, 46, 15, 0)
s = 152: (0, 82, 32, 83, 27, 155, 31, 16, 76, 47, 7, 0)
s = 153: (0, 45, 40, 43, 62, 108, 24, 19, 43, 32, 16, 0)
s = 154: (0, 48, 46, 55, 39, 100, 27, 13, 44, 20, 14, 0)
s = 155: (0, 58, 37, 67, 50, 138, 32, 13, 79, 44, 12, 0)
s = 156: (0, 54, 57, 73, 31, 137, 30, 9, 56, 27, 11, 0)
s = 157: (0, 59, 36, 65, 39, 104, 31, 14, 66, 24, 12, 0)
s = 158: (0, 46, 36, 48, 33, 93, 23, 9, 57, 22, 13, 0)
s = 159: (0, 41, 32, 62, 27, 172, 42, 12, 66, 43, 9, 0)
s = 160: (0, 40, 49, 96, 18, 108, 35, 9, 66, 21, 9, 0)
s = 161: (0, 60, 31, 66, 31, 124, 31, 21, 44, 30, 15, 0)
s = 162: (0, 39, 50, 65, 46, 143, 29, 15, 53, 23, 9, 0)
s = 163: (0, 43, 31, 71, 22, 161, 19, 12, 55, 20, 16, 0)
s = 164: (0, 46, 56, 50, 22, 140, 29, 19, 56, 20, 9, 0)
s = 165: (0, 54, 44, 54, 28, 189, 28, 11, 111, 17, 11, 0)
s = 166: (0, 34, 26, 98, 59, 133, 22, 10, 78, 32, 14, 0)
s = 167: (0, 49, 22, 55, 45, 102, 26, 9, 86, 27, 8, 0)
s = 168: (0, 30, 49, 66, 23, 102, 45, 17, 58, 26, 8, 0)
s = 169: (0, 61, 36, 69, 47, 132, 27, 13, 68, 18, 14, 0)
s = 170: (0, 57, 33, 63, 36, 91, 35, 13, 69, 37, 20, 0)
s = 171: (0, 53, 49, 45, 25, 98, 20, 9, 109, 31, 11, 0)
s = 172: (0, 39, 32, 96, 45, 92, 20, 10, 118, 37, 16, 0)
s = 173: (0, 57, 38, 93, 21, 135, 27, 9, 41, 25, 12, 0)
s = 174: (0, 68, 42, 70, 33, 69, 29, 13, 78, 41, 15, 0)
s = 175: (0, 66, 47, 43, 23, 68, 34, 10, 59, 38, 12, 0)
s = 176: (0, 61, 27, 46, 22, 76, 36, 11, 96, 27, 9, 0)
s = 177: (0, 51, 35, 90, 26, 121, 29, 14, 69, 23, 11, 0)
s = 178: (0, 37, 29, 54, 34, 108, 32, 19, 87, 23, 13, 0)
s = 179: (0, 65, 36, 64, 44, 83, 35, 8, 72, 36, 10, 0)
s = 180: (0, 32, 29, 38, 33, 69, 38, 8, 61, 19, 12, 0)
s = 181: (0, 45, 26, 51, 29, 185, 39, 14, 53, 29, 21, 0)
s = 182: (0, 44, 32, 86, 35, 80, 23, 9, 81, 36, 11, 0)
s = 183: (0, 42, 32, 58, 20, 142, 51, 18, 59, 44, 14, 0)
s = 184: (0, 45, 27, 88, 23, 99, 21, 12, 57, 23, 12, 0)
s = 185: (0, 64, 47, 53, 21, 121, 39, 13, 55, 24, 9, 0)
s = 186: (0, 69, 32, 56, 32, 113, 35, 8, 54, 34, 11, 0)
s = 187: (0, 45, 25, 48, 35, 100, 30, 17, 66, 23, 13, 0)
s = 188: (0, 62, 35, 70, 28, 129, 43, 14, 59, 26, 12, 0)
s = 189: (0, 42, 52, 56, 32, 62, 24, 14, 69, 40, 7, 0)
s = 190: (0, 66, 45, 90, 19, 97, 37, 9, 95, 35, 14, 0)
s = 191: (0, 34, 47, 70, 22, 88, 34, 12, 71, 37, 14, 0)
s = 192: (0, 45, 36, 85, 45, 181, 20, 14, 74, 16, 11, 0)
s = 193: (0, 45, 37, 62, 28, 91, 24, 14, 92, 51, 13, 0)
s = 194: (0, 31, 37, 77, 26, 160, 29, 11, 50, 34, 11, 0)
s = 195: (0, 55, 31, 48, 18, 93, 36, 13, 40, 17, 13, 0)
s = 196: (0, 67, 37, 87, 44, 172, 28, 12, 85, 33, 14, 0)
s = 197: (0, 43, 45, 41, 36, 126, 29, 11, 74, 29, 7, 0)
s = 198: (0, 59, 28, 66, 36, 151, 20, 17, 50, 30, 14, 0)
s = 199: (0, 46, 29, 68, 28, 111, 19, 11, 76, 19, 11, 0)
s = 200: (0, 46, 32, 50, 28, 71, 52, 21, 58, 59, 20, 0)
************************************************************************
ES/LS-VALUES:
jobnr.   ES(i)    LS(i)
------------------------------------------------------------------------
  0        0        0
  1        0       53
  2        0       69
  3        0       66
  4        5       75
  5        5       59
  6       18       73
  7       21       77
  8        8       74
  9       22       79
 10        3       81
 11       26       83
************************************************************************
BIG-M-VALUES:
M1 = 51, M2 = 243
************************************************************************
